Instance Name : r111
Date : 2022-07-18
Solution
Route 1 : 28 76 79 78 29 24 68 80 12 26
Route 2 : 18 83 45 8 46 17 5 60 89
Route 3 : 40 87 97 13
Route 4 : 2 57 15 43 41 22 74 56 72 21 58
Route 5 : 92 42 14 44 38 86 16 91 100 37 98 95
Route 6 : 50 33 81 51 9 71 35 34 3 77
Route 7 : 53
Route 8 : 27 69 30 20 65 66 32 70 1
Route 9 : 73 75 23 67 39 55 4 25 54
Route 10 : 88 62 11 63 90 10 31
Route 11 : 7 19 64 49 36 47 48 82 52
Route 12 : 94 6 99 84 61 85 93 59 96
